Zn_Ni_Ag_stable_slab                    
   1.00000000000000     
     5.2373640000000004    0.0000000000000000    0.0000000000000000
    -2.6186810000000000    4.5356909999999999    0.0000000000000000
     0.0000000000000000    0.0000000000000000   19.9155592732039999
   Zn   Ni   Ag
    12     4     4
Selective dynamics
Direct
  0.3333330000000032  0.1666669999999968  0.0000000000000000   F   F   F
  0.3333330000000032  0.6666669999999968  0.0000000000000000   F   F   F
  0.8333330000000032  0.1666669999999968  0.0000000000000000   F   F   F
  0.8333330000000032  0.6666669999999968  0.0000000000000000   F   F   F
  0.1666669999999968  0.3333330000000032  0.1303320645933539   F   F   F
  0.1666669999999968  0.8333330000000032  0.1303320645933539   F   F   F
  0.6666669999999968  0.3333330000000032  0.1303320645933539   F   F   F
  0.6666669999999968  0.8333330000000032  0.1303320645933539   F   F   F
  0.3333851454228032  0.6664977855688006  0.2499391361568184   T   T   T
  0.3331819035423985  0.1667710036772242  0.2498644899374957   T   T   T
  0.8335240626064918  0.1666138263651022  0.2498966091650168   T   T   T
  0.8332815352764493  0.6667577984284639  0.2498619052863421   T   T   T
  0.6665978031621952  0.3333697115833595  0.3509195278816679   T   T   T
  0.6667043319351258  0.8332930852771653  0.3508295155354067   T   T   T
  0.1666202976296762  0.8333701965816869  0.3508519436703070   T   T   T
  0.1666754879044023  0.3332923807107738  0.3508210513479322   T   T   T
  0.8332809661374444  0.6666633394575333  0.4662587500623697   T   T   T
  0.8332969614707700  0.1666593621039152  0.4661391225980517   T   T   T
  0.3333088949399727  0.1666893610996725  0.4663117221216238   T   T   T
  0.3333213674252163  0.6666686758361569  0.4662983250204171   T   T   T
 
  0.00000000E+00  0.00000000E+00  0.00000000E+00
  0.00000000E+00  0.00000000E+00  0.00000000E+00
  0.00000000E+00  0.00000000E+00  0.00000000E+00
  0.00000000E+00  0.00000000E+00  0.00000000E+00
  0.00000000E+00  0.00000000E+00  0.00000000E+00
  0.00000000E+00  0.00000000E+00  0.00000000E+00
  0.00000000E+00  0.00000000E+00  0.00000000E+00
  0.00000000E+00  0.00000000E+00  0.00000000E+00
  0.00000000E+00  0.00000000E+00  0.00000000E+00
  0.00000000E+00  0.00000000E+00  0.00000000E+00
  0.00000000E+00  0.00000000E+00  0.00000000E+00
  0.00000000E+00  0.00000000E+00  0.00000000E+00
  0.00000000E+00  0.00000000E+00  0.00000000E+00
  0.00000000E+00  0.00000000E+00  0.00000000E+00
  0.00000000E+00  0.00000000E+00  0.00000000E+00
  0.00000000E+00  0.00000000E+00  0.00000000E+00
  0.00000000E+00  0.00000000E+00  0.00000000E+00
  0.00000000E+00  0.00000000E+00  0.00000000E+00
  0.00000000E+00  0.00000000E+00  0.00000000E+00
  0.00000000E+00  0.00000000E+00  0.00000000E+00
