ALGO = Fast
EDIFF = 0.0001
EDIFFG = -0.02
ENCUT = 400
GGA = PE
IBRION = 2
ICHARG = 2
IDIPOL = 3
ISIF = 2
ISMEAR = 1
ISPIN = 2
ISYM = 0
LCHARG = False
LORBIT = 11
LREAL = Auto
LWAVE = False
NELM = 100
NELMIN = 8
NSW = 60
PREC = Accurate
SIGMA = 0.2
