Generated by pymatgen's MVLGBSet
0
Gamma
8 8 1
