Zn_Ni_Ag_stable_slab
1.0
5.237364000000000  0.000000000000000  0.000000000000000  
-2.618681000000000  4.535691000000000  0.000000000000000  
0.000000000000000  0.000000000000000  19.915559273204000  
Zn Ni Ag
12 4 4
Selective dynamics
Cartesian
1.309338547985000   0.755950011897000   0.000000000000000      F  F  F  Zn
-0.000001952015000   3.023795511897000   0.000000000000000      F  F  F  Zn
3.928020547985001   0.755950011897000   0.000000000000000      F  F  F  Zn
2.618680047985000   3.023795511897000   0.000000000000000      F  F  F  Zn
0.000002952015000   1.511895488103000   2.595635957608000      F  F  F  Zn
-1.309337547985000   3.779740988103000   2.595635957608000      F  F  F  Zn
2.618684952015000   1.511895488103000   2.595635957608000      F  F  F  Zn
1.309344452015000   3.779740988103000   2.595635957608000      F  F  F  Zn
-0.000080512453000   3.023895297099000   5.022219062104000     T  T  T  Zn
1.309568991999000   0.755940940515000   5.022239444652000     T  T  T  Zn
3.927784866621000   0.756022582953000   5.022239444652000     T  T  T  Zn
2.618753371043000   3.023623155639000   5.022239444652000     T  T  T  Zn
2.618692808066000   1.511918166558000   7.433087222091999     T  T  T  Ni
1.309467530086000   3.779818094850000   7.433127987188000     T  T  T  Ni
-1.309494668893000   3.779795416395000   7.433127987188000     T  T  T  Ni
-0.000033709563000   1.511759417373000   7.433148369736000     T  T  T  Ni
2.618763845829000   3.023886225717000   9.915538890656000     T  T  T  Ag
3.928067684261000   0.755950011897000   9.915538890656000     T  T  T  Ag
1.309265224865000   0.755841155313000   9.915559273204000     T  T  T  Ag
-0.000109317972000   3.023818190352000   9.915559273204000     T  T  T  Ag