CO molecule in a box                    
   1.00000000000000     
    10.0000000000000000    0.0000000000000000    0.0000000000000000
     0.0000000000000000   10.0000000000000000    0.0000000000000000
     0.0000000000000000    0.0000000000000000   10.0000000000000000
   C    O 
     1     1
Direct
 -0.0000000000000000  0.0000000000000000 -0.0008208183874190
  0.0000000000000000 -0.0000000000000000  0.1136508183874214
 
